<number of tasks>
20

<cycle time>
1000

<order strength>
0,811


<task times>
1 257
2 103
3 43
4 76
5 132
6 59
7 124
8 126
9 105
10 20
11 135
12 76
13 160
14 263
15 76
16 201
17 177
18 248
19 339
20 128

<precedence relations>
1,3
2,3
3,4
3,5
3,6
4,7
5,7
6,10
6,15
7,8
7,9
8,10
9,10
9,11
9,12
10,14
11,13
11,14
11,15
12,20
13,16
13,17
14,16
14,17
15,16
15,17
16,18
16,20
17,19
17,20

<end>
